p cnf 37 41
-32 -37 0
-47 -54 0
-38 -44 -63 0
-37 -44 0
-2 -34 0
-6 -40 0
-3 -38 0
-2 -32 -38 0
-2 -38 -44 0
-39 -46 0
-6 -39 -45 0
-6 -52 0
-38 -64 0
-56 -60 0
-44 -47 -55 0
-38 -48 0
-38 -47 -53 0
-5 -38 -75 0
-31 -38 -56 0
-38 -44 -47 0
-32 -38 -47 0
-32 -47 -55 0
-5 -34 -75 0
-60 -63 0
-5 -34 -63 0
-4 -34 -63 0
-61 -63 0
-63 -71 0
-47 -56 -70 0
-47 -51 -56 0
-39 -47 -86 0
-35 -47 -56 0
-47 -56 -59 0
-44 -47 -56 0
-44 -47 -63 0
-4 -34 -75 0
-1 -6 0
-41 -60 0
-39 -47 -83 0
-34 -39 -47 0
-34 -36 -47 0
